(set-logic ALL)
(declare-const s_VAR String)
(assert (not (<= (str.len s_VAR) 1)))
(assert (> (str.len s_VAR) 0))
(assert (> (str.len s_VAR) (- (str.len s_VAR) 1)))
(assert (not (< (- (str.len s_VAR) 1) 0)))
(assert (not (= (str.at s_VAR 0) (str.at s_VAR (- (str.len s_VAR) 1)))))
(check-sat)
(get-value (s_VAR))
